p edge 240 1680
e 1 6
e 1 43
e 1 72
e 1 204
e 1 207
e 1 213
e 1 215
e 2 41
e 2 140
e 2 144
e 2 166
e 2 223
e 2 226
e 2 233
e 3 47
e 3 80
e 3 149
e 3 194
e 3 205
e 3 232
e 3 239
e 4 79
e 4 93
e 4 103
e 4 154
e 4 154
e 4 164
e 4 176
e 5 24
e 5 57
e 5 103
e 5 147
e 5 208
e 5 212
e 5 220
e 6 96
e 6 125
e 6 155
e 6 156
e 6 182
e 6 190
e 6 240
e 7 59
e 7 70
e 7 149
e 7 150
e 7 163
e 7 165
e 7 171
e 8 20
e 8 82
e 8 100
e 8 114
e 8 146
e 8 174
e 8 211
e 9 17
e 9 50
e 9 52
e 9 65
e 9 107
e 9 132
e 9 153
e 10 5
e 10 22
e 10 38
e 10 48
e 10 145
e 10 196
e 10 236
e 11 26
e 11 58
e 11 122
e 11 126
e 11 207
e 11 211
e 11 238
e 12 56
e 12 88
e 12 119
e 12 121
e 12 157
e 12 196
e 12 238
e 13 12
e 13 50
e 13 136
e 13 171
e 13 179
e 13 198
e 13 218
e 14 57
e 14 106
e 14 107
e 14 121
e 14 155
e 14 157
e 14 230
e 15 34
e 15 50
e 15 56
e 15 61
e 15 131
e 15 141
e 15 158
e 16 71
e 16 128
e 16 135
e 16 154
e 16 180
e 16 204
e 16 229
e 17 36
e 17 79
e 17 120
e 17 151
e 17 174
e 17 184
e 17 199
e 18 6
e 18 30
e 18 44
e 18 76
e 18 86
e 18 181
e 18 193
e 19 52
e 19 129
e 19 135
e 19 190
e 19 204
e 19 212
e 19 230
e 20 90
e 20 110
e 20 113
e 20 139
e 20 152
e 20 192
e 20 224
e 21 7
e 21 44
e 21 45
e 21 158
e 21 171
e 21 184
e 21 209
e 22 71
e 22 107
e 22 119
e 22 163
e 22 164
e 22 197
e 22 232
e 23 17
e 23 21
e 23 72
e 23 96
e 23 144
e 23 149
e 23 157
e 24 50
e 24 138
e 24 149
e 24 155
e 24 182
e 24 185
e 24 217
e 25 108
e 25 119
e 25 129
e 25 153
e 25 168
e 25 178
e 25 203
e 26 31
e 26 51
e 26 96
e 26 114
e 26 170
e 26 173
e 26 176
e 27 54
e 27 70
e 27 110
e 27 123
e 27 158
e 27 187
e 27 192
e 28 53
e 28 67
e 28 127
e 28 138
e 28 159
e 28 159
e 28 209
e 29 67
e 29 77
e 29 105
e 29 117
e 29 152
e 29 173
e 29 178
e 30 2
e 30 40
e 30 59
e 30 67
e 30 154
e 30 194
e 30 196
e 31 73
e 31 79
e 31 106
e 31 130
e 31 162
e 31 228
e 31 240
e 32 8
e 32 30
e 32 58
e 32 61
e 32 77
e 32 79
e 32 131
e 33 55
e 33 62
e 33 127
e 33 129
e 33 189
e 33 193
e 33 222
e 34 47
e 34 98
e 34 115
e 34 151
e 34 161
e 34 213
e 34 223
e 35 72
e 35 129
e 35 134
e 35 176
e 35 176
e 35 198
e 35 237
e 36 2
e 36 3
e 36 59
e 36 60
e 36 178
e 36 207
e 36 234
e 37 8
e 37 114
e 37 118
e 37 163
e 37 174
e 37 178
e 37 185
e 38 15
e 38 75
e 38 154
e 38 159
e 38 172
e 38 221
e 38 236
e 39 11
e 39 65
e 39 74
e 39 137
e 39 188
e 39 215
e 39 218
e 40 7
e 40 23
e 40 54
e 40 107
e 40 151
e 40 159
e 40 176
e 41 7
e 41 17
e 41 56
e 41 150
e 41 169
e 41 177
e 41 194
e 42 77
e 42 116
e 42 128
e 42 139
e 42 189
e 42 204
e 42 237
e 43 22
e 43 32
e 43 53
e 43 75
e 43 167
e 43 171
e 43 212
e 44 16
e 44 26
e 44 62
e 44 64
e 44 95
e 44 128
e 44 154
e 45 68
e 45 70
e 45 132
e 45 145
e 45 186
e 45 215
e 45 237
e 46 19
e 46 35
e 46 38
e 46 66
e 46 74
e 46 123
e 46 238
e 47 61
e 47 86
e 47 101
e 47 106
e 47 113
e 47 119
e 47 239
e 48 2
e 48 8
e 48 29
e 48 74
e 48 126
e 48 159
e 48 168
e 49 20
e 49 64
e 49 65
e 49 206
e 49 222
e 49 226
e 49 235
e 50 10
e 50 38
e 50 91
e 50 119
e 50 135
e 50 146
e 50 152
e 51 36
e 51 74
e 51 77
e 51 83
e 51 158
e 51 165
e 51 199
e 52 14
e 52 59
e 52 102
e 52 111
e 52 148
e 52 169
e 52 224
e 53 13
e 53 45
e 53 94
e 53 156
e 53 163
e 53 166
e 53 172
e 54 44
e 54 52
e 54 57
e 54 59
e 54 63
e 54 152
e 54 221
e 55 77
e 55 99
e 55 100
e 55 143
e 55 149
e 55 194
e 55 235
e 56 15
e 56 23
e 56 58
e 56 190
e 56 222
e 56 225
e 56 225
e 57 15
e 57 28
e 57 41
e 57 136
e 57 152
e 57 162
e 57 193
e 58 51
e 58 83
e 58 86
e 58 118
e 58 175
e 58 218
e 58 218
e 59 14
e 59 20
e 59 77
e 59 104
e 59 114
e 59 134
e 59 165
e 60 25
e 60 88
e 60 111
e 60 158
e 60 179
e 60 212
e 60 236
e 61 2
e 61 57
e 61 72
e 61 87
e 61 104
e 61 153
e 61 209
e 62 42
e 62 89
e 62 108
e 62 167
e 62 177
e 62 190
e 62 197
e 63 50
e 63 56
e 63 60
e 63 93
e 63 99
e 63 113
e 63 135
e 64 4
e 64 6
e 64 17
e 64 24
e 64 76
e 64 107
e 64 232
e 65 21
e 65 54
e 65 121
e 65 131
e 65 155
e 65 160
e 65 232
e 66 74
e 66 79
e 66 83
e 66 133
e 66 151
e 66 211
e 66 235
e 67 10
e 67 30
e 67 65
e 67 106
e 67 122
e 67 152
e 67 162
e 68 16
e 68 75
e 68 102
e 68 113
e 68 181
e 68 211
e 68 240
e 69 106
e 69 118
e 69 122
e 69 139
e 69 195
e 69 214
e 69 221
e 70 1
e 70 28
e 70 48
e 70 109
e 70 131
e 70 167
e 70 175
e 71 27
e 71 54
e 71 117
e 71 136
e 71 138
e 71 159
e 71 213
e 72 25
e 72 50
e 72 60
e 72 114
e 72 130
e 72 163
e 72 181
e 73 44
e 73 63
e 73 69
e 73 122
e 73 172
e 73 223
e 73 226
e 74 32
e 74 43
e 74 52
e 74 82
e 74 88
e 74 207
e 74 229
e 75 12
e 75 124
e 75 128
e 75 135
e 75 160
e 75 166
e 75 187
e 76 43
e 76 67
e 76 99
e 76 126
e 76 135
e 76 181
e 76 240
e 77 59
e 77 129
e 77 136
e 77 188
e 77 216
e 77 225
e 77 231
e 78 1
e 78 17
e 78 122
e 78 142
e 78 187
e 78 202
e 78 214
e 79 75
e 79 108
e 79 148
e 79 159
e 79 172
e 79 176
e 79 216
e 80 8
e 80 16
e 80 17
e 80 26
e 80 82
e 80 190
e 80 199
e 81 119
e 81 125
e 81 178
e 81 182
e 81 202
e 81 208
e 81 224
e 82 12
e 82 20
e 82 26
e 82 66
e 82 125
e 82 164
e 82 190
e 83 2
e 83 6
e 83 36
e 83 60
e 83 75
e 83 125
e 83 164
e 84 29
e 84 94
e 84 95
e 84 170
e 84 195
e 84 215
e 84 216
e 85 81
e 85 115
e 85 157
e 85 172
e 85 174
e 85 225
e 85 240
e 86 48
e 86 59
e 86 113
e 86 181
e 86 208
e 86 220
e 86 225
e 87 4
e 87 29
e 87 47
e 87 68
e 87 74
e 87 162
e 87 183
e 88 24
e 88 49
e 88 109
e 88 142
e 88 171
e 88 171
e 88 216
e 89 14
e 89 17
e 89 42
e 89 63
e 89 94
e 89 123
e 89 189
e 90 1
e 90 1
e 90 46
e 90 146
e 90 198
e 90 229
e 90 230
e 91 98
e 91 156
e 91 181
e 91 193
e 91 214
e 91 226
e 91 229
e 92 7
e 92 14
e 92 85
e 92 97
e 92 156
e 92 196
e 92 210
e 93 78
e 93 110
e 93 165
e 93 179
e 93 198
e 93 207
e 93 221
e 94 20
e 94 22
e 94 74
e 94 127
e 94 140
e 94 149
e 94 237
e 95 10
e 95 16
e 95 21
e 95 53
e 95 67
e 95 123
e 95 223
e 96 24
e 96 108
e 96 123
e 96 164
e 96 164
e 96 175
e 96 192
e 97 2
e 97 33
e 97 60
e 97 108
e 97 128
e 97 188
e 97 226
e 98 96
e 98 150
e 98 162
e 98 205
e 98 218
e 98 229
e 98 238
e 99 15
e 99 37
e 99 54
e 99 115
e 99 162
e 99 164
e 99 185
e 100 67
e 100 162
e 100 180
e 100 189
e 100 198
e 100 202
e 100 222
e 101 50
e 101 71
e 101 85
e 101 108
e 101 110
e 101 160
e 101 196
e 102 19
e 102 73
e 102 88
e 102 108
e 102 109
e 102 163
e 102 219
e 103 29
e 103 40
e 103 75
e 103 83
e 103 95
e 103 111
e 103 220
e 104 69
e 104 70
e 104 73
e 104 83
e 104 126
e 104 192
e 104 233
e 105 22
e 105 49
e 105 53
e 105 82
e 105 100
e 105 183
e 105 199
e 106 18
e 106 22
e 106 24
e 106 39
e 106 73
e 106 212
e 106 218
e 107 9
e 107 45
e 107 53
e 107 57
e 107 161
e 107 198
e 107 220
e 108 53
e 108 83
e 108 146
e 108 184
e 108 202
e 108 229
e 108 235
e 109 37
e 109 94
e 109 106
e 109 122
e 109 216
e 109 219
e 109 226
e 110 6
e 110 60
e 110 147
e 110 175
e 110 193
e 110 227
e 110 230
e 111 34
e 111 57
e 111 70
e 111 109
e 111 117
e 111 139
e 111 221
e 112 16
e 112 54
e 112 74
e 112 82
e 112 129
e 112 165
e 112 230
e 113 30
e 113 51
e 113 86
e 113 173
e 113 192
e 113 217
e 113 218
e 114 23
e 114 98
e 114 121
e 114 186
e 114 188
e 114 209
e 114 239
e 115 27
e 115 35
e 115 70
e 115 81
e 115 118
e 115 144
e 115 217
e 116 5
e 116 9
e 116 31
e 116 32
e 116 43
e 116 67
e 116 104
e 117 25
e 117 33
e 117 86
e 117 205
e 117 216
e 117 216
e 117 229
e 118 21
e 118 41
e 118 122
e 118 129
e 118 171
e 118 182
e 118 226
e 119 12
e 119 53
e 119 58
e 119 67
e 119 91
e 119 150
e 119 158
e 120 1
e 120 25
e 120 71
e 120 71
e 120 173
e 120 185
e 120 189
e 121 46
e 121 77
e 121 112
e 121 128
e 121 204
e 121 212
e 121 214
e 122 55
e 122 66
e 122 109
e 122 133
e 122 158
e 122 200
e 122 224
e 123 25
e 123 43
e 123 97
e 123 136
e 123 151
e 123 230
e 123 236
e 124 8
e 124 54
e 124 74
e 124 80
e 124 106
e 124 201
e 124 230
e 125 38
e 125 46
e 125 70
e 125 108
e 125 145
e 125 198
e 125 198
e 126 28
e 126 33
e 126 39
e 126 82
e 126 116
e 126 185
e 126 209
e 127 2
e 127 22
e 127 75
e 127 101
e 127 131
e 127 171
e 127 239
e 128 68
e 128 72
e 128 100
e 128 122
e 128 175
e 128 178
e 128 202
e 129 16
e 129 36
e 129 75
e 129 116
e 129 121
e 129 208
e 129 217
e 130 22
e 130 31
e 130 32
e 130 35
e 130 101
e 130 138
e 130 203
e 131 1
e 131 54
e 131 91
e 131 111
e 131 172
e 131 185
e 131 236
e 132 19
e 132 42
e 132 44
e 132 58
e 132 78
e 132 80
e 132 100
e 133 15
e 133 19
e 133 37
e 133 38
e 133 65
e 133 136
e 133 239
e 134 7
e 134 83
e 134 88
e 134 101
e 134 118
e 134 126
e 134 137
e 135 8
e 135 69
e 135 114
e 135 148
e 135 158
e 135 176
e 135 214
e 136 26
e 136 31
e 136 31
e 136 49
e 136 86
e 136 120
e 136 163
e 137 8
e 137 9
e 137 59
e 137 66
e 137 108
e 137 200
e 137 204
e 138 14
e 138 30
e 138 73
e 138 134
e 138 165
e 138 189
e 138 233
e 139 38
e 139 68
e 139 73
e 139 113
e 139 120
e 139 183
e 139 226
e 140 24
e 140 105
e 140 120
e 140 186
e 140 188
e 140 190
e 140 205
e 141 36
e 141 114
e 141 116
e 141 178
e 141 181
e 141 218
e 141 234
e 142 36
e 142 112
e 142 124
e 142 157
e 142 185
e 142 189
e 142 216
e 143 36
e 143 124
e 143 161
e 143 169
e 143 225
e 143 231
e 143 234
e 144 25
e 144 36
e 144 51
e 144 90
e 144 112
e 144 146
e 144 174
e 145 28
e 145 29
e 145 53
e 145 73
e 145 108
e 145 177
e 145 209
e 146 6
e 146 51
e 146 66
e 146 121
e 146 126
e 146 160
e 146 219
e 147 4
e 147 63
e 147 64
e 147 70
e 147 199
e 147 219
e 147 238
e 148 42
e 148 66
e 148 88
e 148 102
e 148 160
e 148 167
e 148 172
e 149 40
e 149 71
e 149 122
e 149 125
e 149 134
e 149 192
e 149 240
e 150 1
e 150 50
e 150 78
e 150 82
e 150 173
e 150 179
e 150 229
e 151 53
e 151 109
e 151 114
e 151 161
e 151 168
e 151 168
e 151 239
e 152 60
e 152 78
e 152 106
e 152 119
e 152 130
e 152 221
e 152 227
e 153 44
e 153 75
e 153 116
e 153 143
e 153 158
e 153 158
e 153 231
e 154 33
e 154 35
e 154 91
e 154 105
e 154 122
e 154 217
e 154 221
e 155 26
e 155 33
e 155 73
e 155 87
e 155 98
e 155 114
e 155 216
e 156 15
e 156 19
e 156 31
e 156 80
e 156 95
e 156 129
e 156 180
e 157 50
e 157 71
e 157 115
e 157 166
e 157 166
e 157 168
e 157 186
e 158 82
e 158 100
e 158 117
e 158 130
e 158 156
e 158 202
e 158 224
e 159 30
e 159 39
e 159 62
e 159 211
e 159 227
e 159 231
e 159 238
e 160 48
e 160 63
e 160 85
e 160 136
e 160 188
e 160 209
e 160 222
e 161 1
e 161 14
e 161 94
e 161 100
e 161 113
e 161 172
e 161 187
e 162 39
e 162 76
e 162 126
e 162 150
e 162 163
e 162 194
e 162 202
e 163 22
e 163 39
e 163 61
e 163 144
e 163 155
e 163 157
e 163 185
e 164 6
e 164 13
e 164 44
e 164 54
e 164 76
e 164 95
e 164 153
e 165 20
e 165 36
e 165 52
e 165 111
e 165 116
e 165 145
e 165 154
e 166 11
e 166 14
e 166 17
e 166 42
e 166 49
e 166 100
e 166 130
e 167 20
e 167 33
e 167 52
e 167 97
e 167 124
e 167 128
e 167 163
e 168 78
e 168 79
e 168 100
e 168 156
e 168 169
e 168 169
e 168 184
e 169 17
e 169 56
e 169 133
e 169 142
e 169 202
e 169 218
e 169 233
e 170 58
e 170 71
e 170 82
e 170 89
e 170 118
e 170 184
e 170 192
e 171 14
e 171 93
e 171 105
e 171 205
e 171 217
e 171 218
e 171 222
e 172 24
e 172 27
e 172 61
e 172 92
e 172 141
e 172 191
e 172 192
e 173 29
e 173 80
e 173 105
e 173 120
e 173 190
e 173 197
e 173 198
e 174 44
e 174 54
e 174 63
e 174 77
e 174 79
e 174 157
e 174 230
e 175 2
e 175 58
e 175 61
e 175 110
e 175 140
e 175 149
e 175 207
e 176 50
e 176 56
e 176 130
e 176 166
e 176 171
e 176 202
e 176 206
e 177 28
e 177 40
e 177 142
e 177 145
e 177 153
e 177 190
e 177 195
e 178 70
e 178 94
e 178 117
e 178 126
e 178 133
e 178 175
e 178 203
e 179 15
e 179 25
e 179 71
e 179 80
e 179 146
e 179 154
e 179 215
e 180 2
e 180 27
e 180 44
e 180 124
e 180 129
e 180 153
e 180 202
e 181 4
e 181 11
e 181 60
e 181 75
e 181 132
e 181 214
e 181 236
e 182 14
e 182 23
e 182 140
e 182 158
e 182 174
e 182 201
e 182 236
e 183 40
e 183 64
e 183 109
e 183 123
e 183 214
e 183 219
e 183 234
e 184 20
e 184 34
e 184 53
e 184 97
e 184 152
e 184 189
e 184 210
e 185 25
e 185 77
e 185 84
e 185 102
e 185 152
e 185 158
e 185 163
e 186 75
e 186 99
e 186 119
e 186 123
e 186 197
e 186 203
e 186 207
e 187 35
e 187 40
e 187 54
e 187 67
e 187 128
e 187 208
e 187 229
e 188 8
e 188 90
e 188 96
e 188 104
e 188 120
e 188 126
e 188 143
e 189 27
e 189 153
e 189 156
e 189 173
e 189 173
e 189 216
e 189 234
e 190 18
e 190 56
e 190 121
e 190 138
e 190 143
e 190 169
e 190 222
e 191 40
e 191 46
e 191 124
e 191 136
e 191 164
e 191 168
e 191 194
e 192 3
e 192 93
e 192 130
e 192 159
e 192 188
e 192 203
e 192 231
e 193 39
e 193 126
e 193 128
e 193 137
e 193 172
e 193 215
e 193 231
e 194 18
e 194 56
e 194 57
e 194 105
e 194 158
e 194 233
e 194 240
e 195 2
e 195 51
e 195 57
e 195 122
e 195 211
e 195 221
e 195 229
e 196 2
e 196 14
e 196 75
e 196 111
e 196 116
e 196 151
e 196 215
e 197 15
e 197 107
e 197 137
e 197 153
e 197 191
e 197 200
e 197 238
e 198 61
e 198 74
e 198 135
e 198 147
e 198 151
e 198 201
e 198 221
e 199 34
e 199 63
e 199 85
e 199 156
e 199 192
e 199 218
e 199 220
e 200 56
e 200 58
e 200 61
e 200 115
e 200 128
e 200 134
e 200 206
e 201 26
e 201 45
e 201 61
e 201 62
e 201 115
e 201 200
e 201 226
e 202 3
e 202 50
e 202 64
e 202 86
e 202 171
e 202 192
e 202 213
e 203 86
e 203 146
e 203 149
e 203 188
e 203 200
e 203 206
e 203 228
e 204 29
e 204 35
e 204 83
e 204 119
e 204 123
e 204 166
e 204 187
e 205 30
e 205 90
e 205 122
e 205 147
e 205 148
e 205 162
e 205 200
e 206 74
e 206 95
e 206 133
e 206 142
e 206 199
e 206 204
e 206 208
e 207 20
e 207 49
e 207 58
e 207 96
e 207 112
e 207 184
e 207 211
e 208 6
e 208 26
e 208 40
e 208 69
e 208 149
e 208 184
e 208 195
e 209 57
e 209 95
e 209 108
e 209 133
e 209 142
e 209 157
e 209 179
e 210 10
e 210 14
e 210 79
e 210 85
e 210 113
e 210 223
e 210 232
e 211 44
e 211 100
e 211 132
e 211 142
e 211 165
e 211 218
e 211 229
e 212 10
e 212 26
e 212 90
e 212 113
e 212 167
e 212 168
e 212 199
e 213 101
e 213 103
e 213 156
e 213 161
e 213 193
e 213 195
e 213 226
e 214 11
e 214 47
e 214 61
e 214 88
e 214 128
e 214 196
e 214 235
e 215 12
e 215 58
e 215 64
e 215 124
e 215 137
e 215 213
e 215 240
e 216 9
e 216 15
e 216 23
e 216 108
e 216 201
e 216 213
e 216 226
e 217 31
e 217 120
e 217 137
e 217 138
e 217 210
e 217 210
e 217 240
e 218 1
e 218 35
e 218 97
e 218 98
e 218 101
e 218 146
e 218 235
e 219 81
e 219 90
e 219 96
e 219 154
e 219 155
e 219 199
e 219 223
e 220 97
e 220 103
e 220 113
e 220 161
e 220 166
e 220 197
e 220 226
e 221 33
e 221 98
e 221 106
e 221 126
e 221 128
e 221 166
e 221 176
e 222 23
e 222 115
e 222 124
e 222 127
e 222 163
e 222 170
e 222 200
e 223 26
e 223 79
e 223 169
e 223 198
e 223 225
e 223 230
e 223 231
e 224 53
e 224 67
e 224 85
e 224 96
e 224 121
e 224 142
e 224 151
e 225 62
e 225 96
e 225 116
e 225 147
e 225 222
e 225 233
e 225 240
e 226 53
e 226 68
e 226 115
e 226 157
e 226 187
e 226 200
e 226 201
e 227 5
e 227 19
e 227 22
e 227 46
e 227 86
e 227 86
e 227 221
e 228 21
e 228 85
e 228 109
e 228 117
e 228 124
e 228 128
e 228 158
e 229 14
e 229 23
e 229 65
e 229 74
e 229 126
e 229 132
e 229 134
e 230 11
e 230 60
e 230 113
e 230 131
e 230 140
e 230 152
e 230 239
e 231 34
e 231 56
e 231 70
e 231 106
e 231 118
e 231 164
e 231 179
e 232 99
e 232 120
e 232 138
e 232 165
e 232 187
e 232 191
e 232 224
e 233 67
e 233 76
e 233 96
e 233 122
e 233 140
e 233 160
e 233 191
e 234 10
e 234 13
e 234 13
e 234 26
e 234 124
e 234 205
e 234 208
e 235 3
e 235 21
e 235 31
e 235 32
e 235 82
e 235 142
e 235 192
e 236 24
e 236 75
e 236 78
e 236 137
e 236 139
e 236 191
e 236 201
e 237 4
e 237 84
e 237 88
e 237 103
e 237 112
e 237 137
e 237 179
e 238 14
e 238 27
e 238 38
e 238 46
e 238 58
e 238 216
e 238 221
e 239 34
e 239 34
e 239 70
e 239 100
e 239 131
e 239 222
e 239 234
e 240 1
e 240 2
e 240 33
e 240 34
e 240 64
e 240 89
e 240 175
